p edge 38 114
e 1 7
e 1 9
e 1 28
e 2 1
e 2 7
e 2 11
e 3 1
e 3 15
e 3 29
e 4 19
e 4 23
e 4 24
e 5 4
e 5 20
e 5 35
e 6 20
e 6 21
e 6 35
e 7 22
e 7 29
e 7 30
e 8 2
e 8 17
e 8 18
e 9 5
e 9 13
e 9 24
e 10 4
e 10 17
e 10 30
e 11 12
e 11 29
e 11 34
e 12 3
e 12 32
e 12 35
e 13 12
e 13 28
e 13 32
e 14 2
e 14 12
e 14 24
e 15 30
e 15 32
e 15 38
e 16 1
e 16 23
e 16 23
e 17 2
e 17 7
e 17 11
e 18 27
e 18 33
e 18 38
e 19 2
e 19 3
e 19 26
e 20 14
e 20 21
e 20 38
e 21 1
e 21 9
e 21 28
e 22 3
e 22 21
e 22 37
e 23 6
e 23 7
e 23 38
e 24 6
e 24 13
e 24 23
e 25 16
e 25 23
e 25 34
e 26 2
e 26 4
e 26 36
e 27 14
e 27 25
e 27 31
e 28 4
e 28 15
e 28 29
e 29 24
e 29 31
e 29 38
e 30 5
e 30 24
e 30 36
e 31 1
e 31 27
e 31 33
e 32 17
e 32 18
e 32 19
e 33 10
e 33 26
e 33 37
e 34 6
e 34 7
e 34 36
e 35 8
e 35 14
e 35 27
e 36 3
e 36 5
e 36 23
e 37 10
e 37 25
e 37 25
e 38 12
e 38 24
e 38 32
